sat
(:added-eqs                       96169
 :arith-eq-adapter                1583
 :arith-bound-propagations-lp     1862
 :arith-branch                    17
 :arith-conflicts                 4705
 :arith-cube-calls                5
 :arith-diseq                     8334
 :arith-fixed-eqs                 9309
 :arith-gcd-calls                 745
 :arith-gomory-cuts               4
 :arith-grobner-calls             734
 :arith-grobner-conflicts         264
 :arith-horner-calls              210
 :arith-horner-conflicts          2
 :arith-horner-cross-nested-forms 38835
 :arith-lower                     35519
 :arith-make-feasible             21976
 :arith-max-columns               3161
 :arith-max-rows                  1369
 :arith-nla-add-bounds            312
 :arith-nla-lemmas                3009
 :arith-nla-propagate-bounds      1232
 :arith-nla-propagate-eq          36682
 :arith-nra-calls                 104
 :arith-offset-eqs                5242
 :arith-patches                   745
 :arith-patches-success           726
 :arith-upper                     64591
 :binary-propagations             127966
 :cnf-encoding-aux-vars           22
 :conflicts                       842
 :decisions                       180719
 :del-clause                      3920
 :elim-unconstrained              97
 :final-checks                    1618
 :max-memory                      47.37
 :memory                          20.31
 :minimized-lits                  550
 :mk-bool-var                     13415
 :mk-clause                       7521
 :mk-clause-binary                41940
 :nlsat-conflicts                 11651
 :nlsat-decisions                 1369
 :nlsat-propagations              894782
 :nlsat-stages                    533971
 :num-allocs                      32547957340.00
 :num-checks                      2
 :propagations                    190335
 :restarts                        7
 :rlimit-count                    15474539
 :solve-eqs-elim-vars             147
 :solve-eqs-steps                 2231
 :time                            9.70
 :total-time                      9.71)
